c File: instances/20_0.45_1.col
c
c Description: Random graph of size 20 vertices and P(0.44999999999999996) of edges between any two vertices.
p col 20 190
e 1 6
e 1 7
e 1 9
e 1 12
e 1 14
e 1 20
e 2 3
e 2 11
e 2 12
e 2 13
e 2 14
e 2 15
e 2 18
e 2 20
e 3 9
e 3 13
e 3 15
e 3 17
e 3 18
e 4 7
e 4 10
e 4 11
e 4 13
e 4 14
e 4 15
e 4 16
e 4 17
e 4 18
e 4 19
e 4 20
e 5 9
e 5 12
e 6 8
e 6 9
e 6 10
e 6 11
e 6 14
e 6 17
e 6 18
e 6 20
e 7 12
e 7 13
e 7 14
e 7 16
e 7 19
e 8 9
e 8 14
e 8 20
e 9 12
e 9 14
e 9 15
e 9 17
e 9 20
e 10 11
e 10 17
e 11 12
e 11 13
e 11 14
e 11 15
e 11 17
e 11 20
e 12 13
e 12 17
e 12 18
e 12 19
e 13 16
e 13 17
e 13 20
e 14 16
e 14 18
e 14 19
e 15 17
e 15 18
e 15 19
e 17 20
e 18 20